resources = [2,1,1,2,2,2];
horizon = 15;
norders = 6;
dist = [100,30,20,15,20,35];
weight = [HEAVY,LIGHT,LIGHT,ULTRA,MEDIUM,LIGHT];
packtime = [1,2,3,5];
available = [0,0,3,5,7,5];
value = [2,5,3,5,10,8];
ndrones = 4;
arrival = [0,0,0,0];
charge  = [0,0,0,0];